NAME           C:\Bruker\Hvattum\knapsack\Problems\class4\100-10-17.mps
ROWS
 N  OBJ
 L  CONSTR1
 L  CONSTR2
 L  CONSTR3
 L  CONSTR4
 L  CONSTR5
 L  CONSTR6
 L  CONSTR7
 L  CONSTR8
 L  CONSTR9
 L  CONSTR10
COLUMNS
    INT0001   'MARKER'  'INTORG'
    X1        OBJ       929
    X1        CONSTR1   949
    X1        CONSTR2   364
    X1        CONSTR3   149
    X1        CONSTR4   747
    X1        CONSTR5   869
    X1        CONSTR6   699
    X1        CONSTR7   209
    X1        CONSTR8   732
    X1        CONSTR9   936
    X1        CONSTR10  727
    X2        OBJ       619
    X2        CONSTR1   384
    X2        CONSTR2   321
    X2        CONSTR3   732
    X2        CONSTR4   968
    X2        CONSTR5   619
    X2        CONSTR6   884
    X2        CONSTR7   10
    X2        CONSTR8   121
    X2        CONSTR9   161
    X2        CONSTR10  710
    X3        OBJ       726
    X3        CONSTR1   175
    X3        CONSTR2   790
    X3        CONSTR3   647
    X3        CONSTR4   120
    X3        CONSTR5   738
    X3        CONSTR6   708
    X3        CONSTR7   441
    X3        CONSTR8   795
    X3        CONSTR9   237
    X3        CONSTR10  403
    X4        OBJ       504
    X4        CONSTR1   304
    X4        CONSTR2   984
    X4        CONSTR3   144
    X4        CONSTR4   121
    X4        CONSTR5   755
    X4        CONSTR6   130
    X4        CONSTR7   697
    X4        CONSTR8   24
    X4        CONSTR9   182
    X4        CONSTR10  853
    X5        OBJ       664
    X5        CONSTR1   105
    X5        CONSTR2   772
    X5        CONSTR3   452
    X5        CONSTR4   941
    X5        CONSTR5   693
    X5        CONSTR6   264
    X5        CONSTR7   265
    X5        CONSTR8   8
    X5        CONSTR9   949
    X5        CONSTR10  55
    X6        OBJ       1102
    X6        CONSTR1   834
    X6        CONSTR2   922
    X6        CONSTR3   38
    X6        CONSTR4   353
    X6        CONSTR5   161
    X6        CONSTR6   745
    X6        CONSTR7   934
    X6        CONSTR8   851
    X6        CONSTR9   684
    X6        CONSTR10  684
    X7        OBJ       767
    X7        CONSTR1   360
    X7        CONSTR2   553
    X7        CONSTR3   596
    X7        CONSTR4   584
    X7        CONSTR5   124
    X7        CONSTR6   128
    X7        CONSTR7   36
    X7        CONSTR8   473
    X7        CONSTR9   328
    X7        CONSTR10  797
    X8        OBJ       1123
    X8        CONSTR1   484
    X8        CONSTR2   839
    X8        CONSTR3   682
    X8        CONSTR4   911
    X8        CONSTR5   300
    X8        CONSTR6   383
    X8        CONSTR7   938
    X8        CONSTR8   284
    X8        CONSTR9   980
    X8        CONSTR10  669
    X9        OBJ       800
    X9        CONSTR1   226
    X9        CONSTR2   22
    X9        CONSTR3   338
    X9        CONSTR4   433
    X9        CONSTR5   268
    X9        CONSTR6   468
    X9        CONSTR7   929
    X9        CONSTR8   504
    X9        CONSTR9   949
    X9        CONSTR10  701
    X10       OBJ       1086
    X10       CONSTR1   598
    X10       CONSTR2   928
    X10       CONSTR3   763
    X10       CONSTR4   968
    X10       CONSTR5   875
    X10       CONSTR6   996
    X10       CONSTR7   294
    X10       CONSTR8   122
    X10       CONSTR9   745
    X10       CONSTR10  165
    X11       OBJ       656
    X11       CONSTR1   345
    X11       CONSTR2   833
    X11       CONSTR3   812
    X11       CONSTR4   781
    X11       CONSTR5   851
    X11       CONSTR6   419
    X11       CONSTR7   237
    X11       CONSTR8   633
    X11       CONSTR9   111
    X11       CONSTR10  800
    X12       OBJ       914
    X12       CONSTR1   996
    X12       CONSTR2   441
    X12       CONSTR3   207
    X12       CONSTR4   395
    X12       CONSTR5   224
    X12       CONSTR6   894
    X12       CONSTR7   923
    X12       CONSTR8   763
    X12       CONSTR9   375
    X12       CONSTR10  200
    X13       OBJ       930
    X13       CONSTR1   276
    X13       CONSTR2   757
    X13       CONSTR3   293
    X13       CONSTR4   539
    X13       CONSTR5   550
    X13       CONSTR6   828
    X13       CONSTR7   543
    X13       CONSTR8   379
    X13       CONSTR9   386
    X13       CONSTR10  362
    X14       OBJ       764
    X14       CONSTR1   320
    X14       CONSTR2   929
    X14       CONSTR3   475
    X14       CONSTR4   182
    X14       CONSTR5   771
    X14       CONSTR6   624
    X14       CONSTR7   518
    X14       CONSTR8   268
    X14       CONSTR9   345
    X14       CONSTR10  603
    X15       OBJ       1006
    X15       CONSTR1   977
    X15       CONSTR2   213
    X15       CONSTR3   374
    X15       CONSTR4   624
    X15       CONSTR5   1000
    X15       CONSTR6   43
    X15       CONSTR7   310
    X15       CONSTR8   784
    X15       CONSTR9   296
    X15       CONSTR10  679
    X16       OBJ       1002
    X16       CONSTR1   479
    X16       CONSTR2   989
    X16       CONSTR3   399
    X16       CONSTR4   988
    X16       CONSTR5   357
    X16       CONSTR6   635
    X16       CONSTR7   722
    X16       CONSTR8   121
    X16       CONSTR9   141
    X16       CONSTR10  801
    X17       OBJ       658
    X17       CONSTR1   429
    X17       CONSTR2   570
    X17       CONSTR3   310
    X17       CONSTR4   639
    X17       CONSTR5   368
    X17       CONSTR6   603
    X17       CONSTR7   393
    X17       CONSTR8   289
    X17       CONSTR9   616
    X17       CONSTR10  181
    X18       OBJ       824
    X18       CONSTR1   27
    X18       CONSTR2   632
    X18       CONSTR3   387
    X18       CONSTR4   970
    X18       CONSTR5   75
    X18       CONSTR6   226
    X18       CONSTR7   181
    X18       CONSTR8   482
    X18       CONSTR9   84
    X18       CONSTR10  625
    X19       OBJ       647
    X19       CONSTR1   459
    X19       CONSTR2   327
    X19       CONSTR3   345
    X19       CONSTR4   331
    X19       CONSTR5   354
    X19       CONSTR6   79
    X19       CONSTR7   816
    X19       CONSTR8   91
    X19       CONSTR9   741
    X19       CONSTR10  76
    X20       OBJ       433
    X20       CONSTR1   40
    X20       CONSTR2   119
    X20       CONSTR3   420
    X20       CONSTR4   150
    X20       CONSTR5   701
    X20       CONSTR6   970
    X20       CONSTR7   226
    X20       CONSTR8   777
    X20       CONSTR9   520
    X20       CONSTR10  237
    X21       OBJ       934
    X21       CONSTR1   247
    X21       CONSTR2   44
    X21       CONSTR3   855
    X21       CONSTR4   590
    X21       CONSTR5   980
    X21       CONSTR6   342
    X21       CONSTR7   923
    X21       CONSTR8   588
    X21       CONSTR9   552
    X21       CONSTR10  893
    X22       OBJ       972
    X22       CONSTR1   409
    X22       CONSTR2   843
    X22       CONSTR3   859
    X22       CONSTR4   349
    X22       CONSTR5   612
    X22       CONSTR6   44
    X22       CONSTR7   855
    X22       CONSTR8   145
    X22       CONSTR9   107
    X22       CONSTR10  928
    X23       OBJ       579
    X23       CONSTR1   328
    X23       CONSTR2   789
    X23       CONSTR3   997
    X23       CONSTR4   210
    X23       CONSTR5   228
    X23       CONSTR6   624
    X23       CONSTR7   447
    X23       CONSTR8   591
    X23       CONSTR9   468
    X23       CONSTR10  99
    X24       OBJ       524
    X24       CONSTR1   27
    X24       CONSTR2   7
    X24       CONSTR3   689
    X24       CONSTR4   608
    X24       CONSTR5   746
    X24       CONSTR6   522
    X24       CONSTR7   443
    X24       CONSTR8   547
    X24       CONSTR9   927
    X24       CONSTR10  218
    X25       OBJ       810
    X25       CONSTR1   582
    X25       CONSTR2   237
    X25       CONSTR3   838
    X25       CONSTR4   122
    X25       CONSTR5   347
    X25       CONSTR6   719
    X25       CONSTR7   54
    X25       CONSTR8   811
    X25       CONSTR9   899
    X25       CONSTR10  71
    X26       OBJ       813
    X26       CONSTR1   372
    X26       CONSTR2   21
    X26       CONSTR3   551
    X26       CONSTR4   62
    X26       CONSTR5   817
    X26       CONSTR6   298
    X26       CONSTR7   714
    X26       CONSTR8   225
    X26       CONSTR9   503
    X26       CONSTR10  52
    X27       OBJ       1111
    X27       CONSTR1   380
    X27       CONSTR2   309
    X27       CONSTR3   299
    X27       CONSTR4   470
    X27       CONSTR5   967
    X27       CONSTR6   590
    X27       CONSTR7   639
    X27       CONSTR8   963
    X27       CONSTR9   775
    X27       CONSTR10  735
    X28       OBJ       708
    X28       CONSTR1   214
    X28       CONSTR2   751
    X28       CONSTR3   588
    X28       CONSTR4   579
    X28       CONSTR5   586
    X28       CONSTR6   836
    X28       CONSTR7   308
    X28       CONSTR8   878
    X28       CONSTR9   993
    X28       CONSTR10  509
    X29       OBJ       560
    X29       CONSTR1   513
    X29       CONSTR2   760
    X29       CONSTR3   932
    X29       CONSTR4   672
    X29       CONSTR5   798
    X29       CONSTR6   398
    X29       CONSTR7   103
    X29       CONSTR8   13
    X29       CONSTR9   487
    X29       CONSTR10  718
    X30       OBJ       538
    X30       CONSTR1   55
    X30       CONSTR2   185
    X30       CONSTR3   46
    X30       CONSTR4   164
    X30       CONSTR5   890
    X30       CONSTR6   582
    X30       CONSTR7   81
    X30       CONSTR8   247
    X30       CONSTR9   63
    X30       CONSTR10  974
    X31       OBJ       950
    X31       CONSTR1   842
    X31       CONSTR2   189
    X31       CONSTR3   852
    X31       CONSTR4   253
    X31       CONSTR5   775
    X31       CONSTR6   708
    X31       CONSTR7   371
    X31       CONSTR8   327
    X31       CONSTR9   457
    X31       CONSTR10  45
    X32       OBJ       728
    X32       CONSTR1   704
    X32       CONSTR2   850
    X32       CONSTR3   428
    X32       CONSTR4   666
    X32       CONSTR5   707
    X32       CONSTR6   970
    X32       CONSTR7   513
    X32       CONSTR8   740
    X32       CONSTR9   169
    X32       CONSTR10  474
    X33       OBJ       370
    X33       CONSTR1   75
    X33       CONSTR2   3
    X33       CONSTR3   349
    X33       CONSTR4   272
    X33       CONSTR5   539
    X33       CONSTR6   563
    X33       CONSTR7   387
    X33       CONSTR8   317
    X33       CONSTR9   91
    X33       CONSTR10  14
    X34       OBJ       717
    X34       CONSTR1   459
    X34       CONSTR2   517
    X34       CONSTR3   612
    X34       CONSTR4   30
    X34       CONSTR5   783
    X34       CONSTR6   28
    X34       CONSTR7   433
    X34       CONSTR8   907
    X34       CONSTR9   147
    X34       CONSTR10  680
    X35       OBJ       839
    X35       CONSTR1   329
    X35       CONSTR2   382
    X35       CONSTR3   538
    X35       CONSTR4   59
    X35       CONSTR5   735
    X35       CONSTR6   764
    X35       CONSTR7   682
    X35       CONSTR8   201
    X35       CONSTR9   468
    X35       CONSTR10  130
    X36       OBJ       936
    X36       CONSTR1   810
    X36       CONSTR2   773
    X36       CONSTR3   57
    X36       CONSTR4   705
    X36       CONSTR5   678
    X36       CONSTR6   920
    X36       CONSTR7   562
    X36       CONSTR8   832
    X36       CONSTR9   64
    X36       CONSTR10  282
    X37       OBJ       518
    X37       CONSTR1   151
    X37       CONSTR2   481
    X37       CONSTR3   869
    X37       CONSTR4   238
    X37       CONSTR5   16
    X37       CONSTR6   708
    X37       CONSTR7   986
    X37       CONSTR8   154
    X37       CONSTR9   194
    X37       CONSTR10  14
    X38       OBJ       804
    X38       CONSTR1   51
    X38       CONSTR2   163
    X38       CONSTR3   904
    X38       CONSTR4   212
    X38       CONSTR5   203
    X38       CONSTR6   429
    X38       CONSTR7   247
    X38       CONSTR8   424
    X38       CONSTR9   876
    X38       CONSTR10  978
    X39       OBJ       747
    X39       CONSTR1   332
    X39       CONSTR2   990
    X39       CONSTR3   688
    X39       CONSTR4   534
    X39       CONSTR5   476
    X39       CONSTR6   112
    X39       CONSTR7   432
    X39       CONSTR8   340
    X39       CONSTR9   242
    X39       CONSTR10  341
    X40       OBJ       711
    X40       CONSTR1   527
    X40       CONSTR2   959
    X40       CONSTR3   69
    X40       CONSTR4   320
    X40       CONSTR5   244
    X40       CONSTR6   540
    X40       CONSTR7   121
    X40       CONSTR8   400
    X40       CONSTR9   326
    X40       CONSTR10  444
    X41       OBJ       965
    X41       CONSTR1   549
    X41       CONSTR2   844
    X41       CONSTR3   327
    X41       CONSTR4   438
    X41       CONSTR5   273
    X41       CONSTR6   838
    X41       CONSTR7   707
    X41       CONSTR8   388
    X41       CONSTR9   306
    X41       CONSTR10  809
    X42       OBJ       672
    X42       CONSTR1   679
    X42       CONSTR2   246
    X42       CONSTR3   700
    X42       CONSTR4   60
    X42       CONSTR5   612
    X42       CONSTR6   301
    X42       CONSTR7   462
    X42       CONSTR8   119
    X42       CONSTR9   968
    X42       CONSTR10  559
    X43       OBJ       394
    X43       CONSTR1   426
    X43       CONSTR2   176
    X43       CONSTR3   571
    X43       CONSTR4   341
    X43       CONSTR5   306
    X43       CONSTR6   341
    X43       CONSTR7   613
    X43       CONSTR8   239
    X43       CONSTR9   834
    X43       CONSTR10  84
    X44       OBJ       639
    X44       CONSTR1   853
    X44       CONSTR2   632
    X44       CONSTR3   758
    X44       CONSTR4   988
    X44       CONSTR5   497
    X44       CONSTR6   556
    X44       CONSTR7   841
    X44       CONSTR8   10
    X44       CONSTR9   30
    X44       CONSTR10  868
    X45       OBJ       824
    X45       CONSTR1   838
    X45       CONSTR2   941
    X45       CONSTR3   564
    X45       CONSTR4   913
    X45       CONSTR5   441
    X45       CONSTR6   85
    X45       CONSTR7   34
    X45       CONSTR8   438
    X45       CONSTR9   354
    X45       CONSTR10  691
    X46       OBJ       688
    X46       CONSTR1   41
    X46       CONSTR2   713
    X46       CONSTR3   72
    X46       CONSTR4   684
    X46       CONSTR5   371
    X46       CONSTR6   315
    X46       CONSTR7   514
    X46       CONSTR8   675
    X46       CONSTR9   110
    X46       CONSTR10  70
    X47       OBJ       723
    X47       CONSTR1   602
    X47       CONSTR2   957
    X47       CONSTR3   221
    X47       CONSTR4   294
    X47       CONSTR5   152
    X47       CONSTR6   120
    X47       CONSTR7   744
    X47       CONSTR8   598
    X47       CONSTR9   846
    X47       CONSTR10  943
    X48       OBJ       877
    X48       CONSTR1   585
    X48       CONSTR2   298
    X48       CONSTR3   17
    X48       CONSTR4   930
    X48       CONSTR5   714
    X48       CONSTR6   188
    X48       CONSTR7   503
    X48       CONSTR8   272
    X48       CONSTR9   724
    X48       CONSTR10  899
    X49       OBJ       603
    X49       CONSTR1   57
    X49       CONSTR2   283
    X49       CONSTR3   301
    X49       CONSTR4   50
    X49       CONSTR5   465
    X49       CONSTR6   564
    X49       CONSTR7   361
    X49       CONSTR8   885
    X49       CONSTR9   877
    X49       CONSTR10  867
    X50       OBJ       982
    X50       CONSTR1   418
    X50       CONSTR2   31
    X50       CONSTR3   822
    X50       CONSTR4   706
    X50       CONSTR5   440
    X50       CONSTR6   947
    X50       CONSTR7   181
    X50       CONSTR8   579
    X50       CONSTR9   302
    X50       CONSTR10  409
    X51       OBJ       855
    X51       CONSTR1   380
    X51       CONSTR2   942
    X51       CONSTR3   526
    X51       CONSTR4   585
    X51       CONSTR5   572
    X51       CONSTR6   413
    X51       CONSTR7   881
    X51       CONSTR8   218
    X51       CONSTR9   566
    X51       CONSTR10  399
    X52       OBJ       715
    X52       CONSTR1   524
    X52       CONSTR2   554
    X52       CONSTR3   382
    X52       CONSTR4   66
    X52       CONSTR5   215
    X52       CONSTR6   796
    X52       CONSTR7   753
    X52       CONSTR8   243
    X52       CONSTR9   328
    X52       CONSTR10  916
    X53       OBJ       806
    X53       CONSTR1   939
    X53       CONSTR2   645
    X53       CONSTR3   610
    X53       CONSTR4   95
    X53       CONSTR5   100
    X53       CONSTR6   172
    X53       CONSTR7   507
    X53       CONSTR8   692
    X53       CONSTR9   176
    X53       CONSTR10  461
    X54       OBJ       636
    X54       CONSTR1   209
    X54       CONSTR2   66
    X54       CONSTR3   947
    X54       CONSTR4   229
    X54       CONSTR5   627
    X54       CONSTR6   37
    X54       CONSTR7   316
    X54       CONSTR8   577
    X54       CONSTR9   606
    X54       CONSTR10  216
    X55       OBJ       746
    X55       CONSTR1   127
    X55       CONSTR2   329
    X55       CONSTR3   393
    X55       CONSTR4   561
    X55       CONSTR5   398
    X55       CONSTR6   652
    X55       CONSTR7   97
    X55       CONSTR8   985
    X55       CONSTR9   942
    X55       CONSTR10  221
    X56       OBJ       939
    X56       CONSTR1   415
    X56       CONSTR2   69
    X56       CONSTR3   909
    X56       CONSTR4   909
    X56       CONSTR5   473
    X56       CONSTR6   338
    X56       CONSTR7   409
    X56       CONSTR8   801
    X56       CONSTR9   239
    X56       CONSTR10  146
    X57       OBJ       984
    X57       CONSTR1   761
    X57       CONSTR2   520
    X57       CONSTR3   294
    X57       CONSTR4   448
    X57       CONSTR5   502
    X57       CONSTR6   12
    X57       CONSTR7   658
    X57       CONSTR8   573
    X57       CONSTR9   508
    X57       CONSTR10  668
    X58       OBJ       1111
    X58       CONSTR1   928
    X58       CONSTR2   444
    X58       CONSTR3   474
    X58       CONSTR4   778
    X58       CONSTR5   354
    X58       CONSTR6   922
    X58       CONSTR7   281
    X58       CONSTR8   813
    X58       CONSTR9   363
    X58       CONSTR10  980
    X59       OBJ       746
    X59       CONSTR1   143
    X59       CONSTR2   287
    X59       CONSTR3   559
    X59       CONSTR4   652
    X59       CONSTR5   222
    X59       CONSTR6   178
    X59       CONSTR7   626
    X59       CONSTR8   286
    X59       CONSTR9   392
    X59       CONSTR10  370
    X60       OBJ       598
    X60       CONSTR1   488
    X60       CONSTR2   130
    X60       CONSTR3   532
    X60       CONSTR4   15
    X60       CONSTR5   331
    X60       CONSTR6   261
    X60       CONSTR7   776
    X60       CONSTR8   815
    X60       CONSTR9   101
    X60       CONSTR10  10
    X61       OBJ       659
    X61       CONSTR1   869
    X61       CONSTR2   687
    X61       CONSTR3   104
    X61       CONSTR4   288
    X61       CONSTR5   880
    X61       CONSTR6   364
    X61       CONSTR7   563
    X61       CONSTR8   64
    X61       CONSTR9   996
    X61       CONSTR10  202
    X62       OBJ       538
    X62       CONSTR1   870
    X62       CONSTR2   135
    X62       CONSTR3   408
    X62       CONSTR4   21
    X62       CONSTR5   854
    X62       CONSTR6   428
    X62       CONSTR7   135
    X62       CONSTR8   232
    X62       CONSTR9   614
    X62       CONSTR10  154
    X63       OBJ       721
    X63       CONSTR1   778
    X63       CONSTR2   686
    X63       CONSTR3   318
    X63       CONSTR4   783
    X63       CONSTR5   117
    X63       CONSTR6   864
    X63       CONSTR7   406
    X63       CONSTR8   119
    X63       CONSTR9   42
    X63       CONSTR10  362
    X64       OBJ       678
    X64       CONSTR1   746
    X64       CONSTR2   20
    X64       CONSTR3   189
    X64       CONSTR4   10
    X64       CONSTR5   967
    X64       CONSTR6   685
    X64       CONSTR7   483
    X64       CONSTR8   228
    X64       CONSTR9   733
    X64       CONSTR10  252
    X65       OBJ       975
    X65       CONSTR1   738
    X65       CONSTR2   22
    X65       CONSTR3   842
    X65       CONSTR4   47
    X65       CONSTR5   709
    X65       CONSTR6   642
    X65       CONSTR7   255
    X65       CONSTR8   715
    X65       CONSTR9   327
    X65       CONSTR10  720
    X66       OBJ       731
    X66       CONSTR1   572
    X66       CONSTR2   77
    X66       CONSTR3   23
    X66       CONSTR4   814
    X66       CONSTR5   972
    X66       CONSTR6   300
    X66       CONSTR7   15
    X66       CONSTR8   609
    X66       CONSTR9   170
    X66       CONSTR10  309
    X67       OBJ       688
    X67       CONSTR1   943
    X67       CONSTR2   340
    X67       CONSTR3   407
    X67       CONSTR4   834
    X67       CONSTR5   420
    X67       CONSTR6   310
    X67       CONSTR7   345
    X67       CONSTR8   393
    X67       CONSTR9   102
    X67       CONSTR10  175
    X68       OBJ       1002
    X68       CONSTR1   590
    X68       CONSTR2   196
    X68       CONSTR3   401
    X68       CONSTR4   56
    X68       CONSTR5   703
    X68       CONSTR6   675
    X68       CONSTR7   895
    X68       CONSTR8   51
    X68       CONSTR9   892
    X68       CONSTR10  768
    X69       OBJ       631
    X69       CONSTR1   376
    X69       CONSTR2   476
    X69       CONSTR3   136
    X69       CONSTR4   196
    X69       CONSTR5   690
    X69       CONSTR6   745
    X69       CONSTR7   305
    X69       CONSTR8   69
    X69       CONSTR9   939
    X69       CONSTR10  836
    X70       OBJ       483
    X70       CONSTR1   129
    X70       CONSTR2   510
    X70       CONSTR3   59
    X70       CONSTR4   495
    X70       CONSTR5   516
    X70       CONSTR6   72
    X70       CONSTR7   5
    X70       CONSTR8   970
    X70       CONSTR9   679
    X70       CONSTR10  378
    X71       OBJ       710
    X71       CONSTR1   694
    X71       CONSTR2   582
    X71       CONSTR3   282
    X71       CONSTR4   660
    X71       CONSTR5   199
    X71       CONSTR6   662
    X71       CONSTR7   53
    X71       CONSTR8   683
    X71       CONSTR9   51
    X71       CONSTR10  622
    X72       OBJ       780
    X72       CONSTR1   755
    X72       CONSTR2   736
    X72       CONSTR3   648
    X72       CONSTR4   679
    X72       CONSTR5   952
    X72       CONSTR6   445
    X72       CONSTR7   3
    X72       CONSTR8   518
    X72       CONSTR9   777
    X72       CONSTR10  651
    X73       OBJ       939
    X73       CONSTR1   877
    X73       CONSTR2   227
    X73       CONSTR3   864
    X73       CONSTR4   114
    X73       CONSTR5   271
    X73       CONSTR6   5
    X73       CONSTR7   205
    X73       CONSTR8   659
    X73       CONSTR9   373
    X73       CONSTR10  965
    X74       OBJ       635
    X74       CONSTR1   571
    X74       CONSTR2   861
    X74       CONSTR3   286
    X74       CONSTR4   775
    X74       CONSTR5   395
    X74       CONSTR6   555
    X74       CONSTR7   130
    X74       CONSTR8   192
    X74       CONSTR9   73
    X74       CONSTR10  290
    X75       OBJ       699
    X75       CONSTR1   141
    X75       CONSTR2   907
    X75       CONSTR3   602
    X75       CONSTR4   375
    X75       CONSTR5   6
    X75       CONSTR6   384
    X75       CONSTR7   377
    X75       CONSTR8   468
    X75       CONSTR9   478
    X75       CONSTR10  572
    X76       OBJ       673
    X76       CONSTR1   990
    X76       CONSTR2   453
    X76       CONSTR3   739
    X76       CONSTR4   466
    X76       CONSTR5   430
    X76       CONSTR6   990
    X76       CONSTR7   217
    X76       CONSTR8   731
    X76       CONSTR9   389
    X76       CONSTR10  479
    X77       OBJ       1025
    X77       CONSTR1   322
    X77       CONSTR2   825
    X77       CONSTR3   939
    X77       CONSTR4   177
    X77       CONSTR5   976
    X77       CONSTR6   279
    X77       CONSTR7   215
    X77       CONSTR8   246
    X77       CONSTR9   939
    X77       CONSTR10  496
    X78       OBJ       715
    X78       CONSTR1   580
    X78       CONSTR2   266
    X78       CONSTR3   389
    X78       CONSTR4   448
    X78       CONSTR5   633
    X78       CONSTR6   162
    X78       CONSTR7   256
    X78       CONSTR8   565
    X78       CONSTR9   189
    X78       CONSTR10  722
    X79       OBJ       490
    X79       CONSTR1   655
    X79       CONSTR2   836
    X79       CONSTR3   568
    X79       CONSTR4   497
    X79       CONSTR5   9
    X79       CONSTR6   33
    X79       CONSTR7   217
    X79       CONSTR8   285
    X79       CONSTR9   424
    X79       CONSTR10  615
    X80       OBJ       871
    X80       CONSTR1   778
    X80       CONSTR2   990
    X80       CONSTR3   424
    X80       CONSTR4   915
    X80       CONSTR5   467
    X80       CONSTR6   54
    X80       CONSTR7   140
    X80       CONSTR8   800
    X80       CONSTR9   739
    X80       CONSTR10  179
    X81       OBJ       500
    X81       CONSTR1   801
    X81       CONSTR2   413
    X81       CONSTR3   343
    X81       CONSTR4   66
    X81       CONSTR5   978
    X81       CONSTR6   400
    X81       CONSTR7   687
    X81       CONSTR8   547
    X81       CONSTR9   389
    X81       CONSTR10  176
    X82       OBJ       674
    X82       CONSTR1   289
    X82       CONSTR2   453
    X82       CONSTR3   327
    X82       CONSTR4   328
    X82       CONSTR5   442
    X82       CONSTR6   599
    X82       CONSTR7   927
    X82       CONSTR8   173
    X82       CONSTR9   952
    X82       CONSTR10  810
    X83       OBJ       861
    X83       CONSTR1   908
    X83       CONSTR2   305
    X83       CONSTR3   832
    X83       CONSTR4   584
    X83       CONSTR5   913
    X83       CONSTR6   658
    X83       CONSTR7   380
    X83       CONSTR8   655
    X83       CONSTR9   671
    X83       CONSTR10  188
    X84       OBJ       546
    X84       CONSTR1   974
    X84       CONSTR2   698
    X84       CONSTR3   403
    X84       CONSTR4   250
    X84       CONSTR5   300
    X84       CONSTR6   878
    X84       CONSTR7   265
    X84       CONSTR8   413
    X84       CONSTR9   14
    X84       CONSTR10  543
    X85       OBJ       700
    X85       CONSTR1   775
    X85       CONSTR2   488
    X85       CONSTR3   810
    X85       CONSTR4   991
    X85       CONSTR5   390
    X85       CONSTR6   463
    X85       CONSTR7   486
    X85       CONSTR8   88
    X85       CONSTR9   591
    X85       CONSTR10  519
    X86       OBJ       1061
    X86       CONSTR1   849
    X86       CONSTR2   527
    X86       CONSTR3   584
    X86       CONSTR4   818
    X86       CONSTR5   965
    X86       CONSTR6   328
    X86       CONSTR7   898
    X86       CONSTR8   586
    X86       CONSTR9   223
    X86       CONSTR10  847
    X87       OBJ       699
    X87       CONSTR1   610
    X87       CONSTR2   890
    X87       CONSTR3   494
    X87       CONSTR4   395
    X87       CONSTR5   575
    X87       CONSTR6   977
    X87       CONSTR7   328
    X87       CONSTR8   835
    X87       CONSTR9   604
    X87       CONSTR10  596
    X88       OBJ       857
    X88       CONSTR1   217
    X88       CONSTR2   911
    X88       CONSTR3   820
    X88       CONSTR4   740
    X88       CONSTR5   713
    X88       CONSTR6   146
    X88       CONSTR7   366
    X88       CONSTR8   333
    X88       CONSTR9   468
    X88       CONSTR10  254
    X89       OBJ       915
    X89       CONSTR1   869
    X89       CONSTR2   737
    X89       CONSTR3   382
    X89       CONSTR4   888
    X89       CONSTR5   719
    X89       CONSTR6   675
    X89       CONSTR7   321
    X89       CONSTR8   175
    X89       CONSTR9   656
    X89       CONSTR10  935
    X90       OBJ       913
    X90       CONSTR1   250
    X90       CONSTR2   825
    X90       CONSTR3   305
    X90       CONSTR4   417
    X90       CONSTR5   638
    X90       CONSTR6   572
    X90       CONSTR7   161
    X90       CONSTR8   696
    X90       CONSTR9   167
    X90       CONSTR10  352
    X91       OBJ       633
    X91       CONSTR1   431
    X91       CONSTR2   385
    X91       CONSTR3   502
    X91       CONSTR4   89
    X91       CONSTR5   710
    X91       CONSTR6   770
    X91       CONSTR7   85
    X91       CONSTR8   204
    X91       CONSTR9   167
    X91       CONSTR10  326
    X92       OBJ       599
    X92       CONSTR1   126
    X92       CONSTR2   176
    X92       CONSTR3   365
    X92       CONSTR4   700
    X92       CONSTR5   474
    X92       CONSTR6   53
    X92       CONSTR7   91
    X92       CONSTR8   189
    X92       CONSTR9   622
    X92       CONSTR10  457
    X93       OBJ       921
    X93       CONSTR1   526
    X93       CONSTR2   751
    X93       CONSTR3   983
    X93       CONSTR4   599
    X93       CONSTR5   187
    X93       CONSTR6   423
    X93       CONSTR7   560
    X93       CONSTR8   964
    X93       CONSTR9   287
    X93       CONSTR10  654
    X94       OBJ       640
    X94       CONSTR1   795
    X94       CONSTR2   17
    X94       CONSTR3   37
    X94       CONSTR4   898
    X94       CONSTR5   955
    X94       CONSTR6   915
    X94       CONSTR7   708
    X94       CONSTR8   352
    X94       CONSTR9   914
    X94       CONSTR10  171
    X95       OBJ       532
    X95       CONSTR1   171
    X95       CONSTR2   371
    X95       CONSTR3   510
    X95       CONSTR4   786
    X95       CONSTR5   575
    X95       CONSTR6   580
    X95       CONSTR7   667
    X95       CONSTR8   508
    X95       CONSTR9   604
    X95       CONSTR10  98
    X96       OBJ       805
    X96       CONSTR1   983
    X96       CONSTR2   375
    X96       CONSTR3   23
    X96       CONSTR4   330
    X96       CONSTR5   986
    X96       CONSTR6   214
    X96       CONSTR7   426
    X96       CONSTR8   529
    X96       CONSTR9   500
    X96       CONSTR10  792
    X97       OBJ       861
    X97       CONSTR1   769
    X97       CONSTR2   219
    X97       CONSTR3   390
    X97       CONSTR4   550
    X97       CONSTR5   35
    X97       CONSTR6   65
    X97       CONSTR7   13
    X97       CONSTR8   351
    X97       CONSTR9   890
    X97       CONSTR10  445
    X98       OBJ       907
    X98       CONSTR1   304
    X98       CONSTR2   456
    X98       CONSTR3   316
    X98       CONSTR4   55
    X98       CONSTR5   721
    X98       CONSTR6   755
    X98       CONSTR7   284
    X98       CONSTR8   645
    X98       CONSTR9   22
    X98       CONSTR10  646
    X99       OBJ       776
    X99       CONSTR1   784
    X99       CONSTR2   952
    X99       CONSTR3   597
    X99       CONSTR4   831
    X99       CONSTR5   824
    X99       CONSTR6   867
    X99       CONSTR7   653
    X99       CONSTR8   672
    X99       CONSTR9   363
    X99       CONSTR10  131
    X100      OBJ       620
    X100      CONSTR1   715
    X100      CONSTR2   995
    X100      CONSTR3   466
    X100      CONSTR4   110
    X100      CONSTR5   142
    X100      CONSTR6   28
    X100      CONSTR7   607
    X100      CONSTR8   49
    X100      CONSTR9   290
    X100      CONSTR10  223
    INT0001   'MARKER'  'INTEND'
RHS
    RHS10001  CONSTR1   25628
    RHS10001  CONSTR2   25721
    RHS10001  CONSTR3   24340
    RHS10001  CONSTR4   23839
    RHS10001  CONSTR5   27127
    RHS10001  CONSTR6   24240
    RHS10001  CONSTR7   21660
    RHS10001  CONSTR8   22959
    RHS10001  CONSTR9   23733
    RHS10001  CONSTR10  24212
BOUNDS
 BV BND       X1        .00
 BV BND       X2        .00
 BV BND       X3        .00
 BV BND       X4        .00
 BV BND       X5        .00
 BV BND       X6        .00
 BV BND       X7        .00
 BV BND       X8        .00
 BV BND       X9        .00
 BV BND       X10       .00
 BV BND       X11       .00
 BV BND       X12       .00
 BV BND       X13       .00
 BV BND       X14       .00
 BV BND       X15       .00
 BV BND       X16       .00
 BV BND       X17       .00
 BV BND       X18       .00
 BV BND       X19       .00
 BV BND       X20       .00
 BV BND       X21       .00
 BV BND       X22       .00
 BV BND       X23       .00
 BV BND       X24       .00
 BV BND       X25       .00
 BV BND       X26       .00
 BV BND       X27       .00
 BV BND       X28       .00
 BV BND       X29       .00
 BV BND       X30       .00
 BV BND       X31       .00
 BV BND       X32       .00
 BV BND       X33       .00
 BV BND       X34       .00
 BV BND       X35       .00
 BV BND       X36       .00
 BV BND       X37       .00
 BV BND       X38       .00
 BV BND       X39       .00
 BV BND       X40       .00
 BV BND       X41       .00
 BV BND       X42       .00
 BV BND       X43       .00
 BV BND       X44       .00
 BV BND       X45       .00
 BV BND       X46       .00
 BV BND       X47       .00
 BV BND       X48       .00
 BV BND       X49       .00
 BV BND       X50       .00
 BV BND       X51       .00
 BV BND       X52       .00
 BV BND       X53       .00
 BV BND       X54       .00
 BV BND       X55       .00
 BV BND       X56       .00
 BV BND       X57       .00
 BV BND       X58       .00
 BV BND       X59       .00
 BV BND       X60       .00
 BV BND       X61       .00
 BV BND       X62       .00
 BV BND       X63       .00
 BV BND       X64       .00
 BV BND       X65       .00
 BV BND       X66       .00
 BV BND       X67       .00
 BV BND       X68       .00
 BV BND       X69       .00
 BV BND       X70       .00
 BV BND       X71       .00
 BV BND       X72       .00
 BV BND       X73       .00
 BV BND       X74       .00
 BV BND       X75       .00
 BV BND       X76       .00
 BV BND       X77       .00
 BV BND       X78       .00
 BV BND       X79       .00
 BV BND       X80       .00
 BV BND       X81       .00
 BV BND       X82       .00
 BV BND       X83       .00
 BV BND       X84       .00
 BV BND       X85       .00
 BV BND       X86       .00
 BV BND       X87       .00
 BV BND       X88       .00
 BV BND       X89       .00
 BV BND       X90       .00
 BV BND       X91       .00
 BV BND       X92       .00
 BV BND       X93       .00
 BV BND       X94       .00
 BV BND       X95       .00
 BV BND       X96       .00
 BV BND       X97       .00
 BV BND       X98       .00
 BV BND       X99       .00
 BV BND       X100      .00
ENDATA
